(declare-const delta_x Int)
(declare-const delta_tmp___0 Int)
(declare-const delta_y Int)
(declare-const delta_tmp___1 Int)
(assert (exists
         ((|tmp___1'?1| Int) (|tmp___0'?2| Int) (|y'?3| Int) (|x'?4| Int)
            (phi_x?5 Int) (phi_y?6 Int) (phi_y?7 Int) (phi_y?8 Int)
            (phi_x?9 Int) (phi_y?10 Int) (phi_x?11 Int) (havoc?12 Int)
            (havoc?13 Int) (havoc?14 Int) (tmp___0?15 Int) (x?16 Int)
            (y?17 Int) (tmp___1?18 Int))
         (and (or (and (<= (- x?16) 0) (<= (- y?17) 0) (< (+ x?16 -100000) 0)
                         (< (+ y?17 -100000) 0) (< (+ (- y?17) -100000) 0)
                         (or (< havoc?14 0) (< 0 havoc?14))
                         (or (< havoc?13 0) (< 0 havoc?13))
                         (= (+ (- phi_x?5) x?16 1) 0)
                         (= (+ (- phi_y?6) y?17 100) 0))
                    (and (<= (- x?16) 0) (<= (- y?17) 0)
                           (< (+ x?16 -100000) 0) (< (+ y?17 -100000) 0)
                           (< (+ (- y?17) -100000) 0)
                           (or (< havoc?14 0) (< 0 havoc?14)) (= havoc?13 0)
                           (or (and (= havoc?12 0)
                                      (= (+ (- phi_x?11) x?16) 0)
                                      (= (+ (- phi_y?10) y?17) 0))
                                 (and (or (< havoc?12 0) (< 0 havoc?12))
                                        (or (and (<= (+ (- x?16) 4) 0)
                                                   (= (+ (- phi_x?9) x?16 1) 0)
                                                   (= (+ (- phi_y?8) y?17 1) 0))
                                              (and (< (+ x?16 -4) 0)
                                                     (= (+ (- phi_x?9) x?16) 0)
                                                     (= (+ (- phi_y?8) y?17) 0)))
                                        (or (and (< phi_x?9 0)
                                                   (= (+ (- phi_y?7) phi_y?8
                                                           -1) 0))
                                              (and (<= (- phi_x?9) 0)
                                                     (= (+ (- phi_y?7)
                                                             phi_y?8) 0)))
                                        (= (+ phi_x?9 (- phi_x?11)) 0)
                                        (= (+ phi_y?7 (- phi_y?10)) 0)))
                           (= (+ phi_x?11 (- phi_x?5)) 0)
                           (= (+ phi_y?10 (- phi_y?6)) 0)))
                (= (+ |tmp___1'?1| (- havoc?14)) 0)
                (= (+ |tmp___0'?2| (- havoc?13)) 0)
                (= (+ |y'?3| (- phi_y?6)) 0) (= (+ |x'?4| (- phi_x?5)) 0)
                (= delta_x (+ |x'?4| (- x?16)))
                (= delta_y (+ |y'?3| (- y?17)))
                (= delta_tmp___0 (+ |tmp___0'?2| (- tmp___0?15)))
                (= delta_tmp___1 (+ |tmp___1'?1| (- tmp___1?18))))))
(check-sat)
